N = 5;
H = 5;
T = 2;

avail = array3d(1..N, 1..H, 1..T, [10, 5, 6, 1, 5, 0, 8, 8, 9, 2, 10, 1, 0, 10, 3, 9, 7, 8, 9, 8, 7, 7, 8, 2, 1, 0, 10, 3, 2, 8, 1, 10, 8, 9, 1, 1, 7, 1, 8, 1, 10, 10, 4, 5, 10, 0, 0, 2, 7, 6]);

r = array2d(1..H, 1..T, [0, 2, 1, 0, 0, 0, 1, 0, 0, 2]);
